WARNING: for repeatability, setting FPU to use double precision
============================[ Problem Statistics ]=============================
|                                                                             |
|  Number of variables:        231855                                         |
|  Number of clauses:          533255                                         |
|  Parse time:                   0.30 s                                       |
|                                                                             |
============================[ Search Statistics ]==============================
| Conflicts |          ORIGINAL         |          LEARNT          | Progress |
|           |    Vars  Clauses Literals |    Limit  Clauses Lit/Cl |          |
===============================================================================
|       100 |  127410   510322  1147654 |   187118      100     17 | 45.048 % |
|       250 |  127410   510322  1147654 |   205829      250     22 | 45.048 % |
|       475 |  127410   510322  1147654 |   226412      475     38 | 45.048 % |
===============================================================================
restarts              : 6
conflicts             : 723            (756 /sec)
decisions             : 13121          (0.00 % random) (13724 /sec)
propagations          : 2583203        (2701928 /sec)
conflict literals     : 29162          (4.85 % deleted)
Memory used           : 57.00 MB
CPU time              : 0.956059 s

SATISFIABLE
